(set-info :smt-lib-version 2.6)
(set-logic UFNIA)
(set-info :source |
Generated by: Geoff Sutcliffe
Generated on: 2026-03-11
Generator: TPTPWorld
Application: Benchmarking automated theorem provers
Time limit: 120.0

These benchmarks are translations from the TPTP Library (Thousands of
Problems for Theorem Provers), see http://www.cs.miami.edu/~tptp/

The TPTP is maintained by Geoff Sutcliffe, and he contributed this
selection of benchmarks to SMT-LIB.  They were exported from the
v9.2.1 realease of TPTP.
|)
(set-info :category "industrial")
(set-info :status "unknown")
; SZS status Success
(declare-sort $$unsorted 0)
(declare-sort tptp.uni 0)
(declare-sort tptp.ty 0)
(declare-fun tptp.sort1 (tptp.ty tptp.uni) Bool)
(declare-fun tptp.witness1 (tptp.ty) tptp.uni)
(assert (forall ((A tptp.ty)) (tptp.sort1 A (tptp.witness1 A))))
(declare-fun tptp.int () tptp.ty)
(declare-fun tptp.real () tptp.ty)
(declare-sort tptp.bool1 0)
(declare-fun tptp.bool () tptp.ty)
(declare-fun tptp.true1 () tptp.bool1)
(declare-fun tptp.false1 () tptp.bool1)
(declare-fun tptp.match_bool1 (tptp.ty tptp.bool1 tptp.uni tptp.uni) tptp.uni)
(assert (forall ((A tptp.ty) (X tptp.bool1) (X1 tptp.uni) (X2 tptp.uni)) (tptp.sort1 A (tptp.match_bool1 A X X1 X2))))
(assert (forall ((A tptp.ty) (Z tptp.uni) (Z1 tptp.uni)) (=> (tptp.sort1 A Z) (= (tptp.match_bool1 A tptp.true1 Z Z1) Z))))
(assert (forall ((A tptp.ty) (Z tptp.uni) (Z1 tptp.uni)) (=> (tptp.sort1 A Z1) (= (tptp.match_bool1 A tptp.false1 Z Z1) Z1))))
(assert (not (= tptp.true1 tptp.false1)))
(assert (forall ((U tptp.bool1)) (or (= U tptp.true1) (= U tptp.false1))))
(declare-sort tptp.tuple02 0)
(declare-fun tptp.tuple0 () tptp.ty)
(declare-fun tptp.tuple03 () tptp.tuple02)
(assert (forall ((U tptp.tuple02)) (= U tptp.tuple03)))
(declare-fun tptp.qtmark () tptp.ty)
(assert (forall ((X Int) (Y Int) (Z Int)) (=> (<= X Y) (=> (<= 0 Z) (<= (* X Z) (* Y Z))))))
(declare-fun tptp.map (tptp.ty tptp.ty) tptp.ty)
(declare-fun tptp.get (tptp.ty tptp.ty tptp.uni tptp.uni) tptp.uni)
(assert (forall ((A tptp.ty) (B tptp.ty) (X tptp.uni) (X1 tptp.uni)) (tptp.sort1 B (tptp.get B A X X1))))
(declare-fun tptp.set (tptp.ty tptp.ty tptp.uni tptp.uni tptp.uni) tptp.uni)
(assert (forall ((A tptp.ty) (B tptp.ty) (X tptp.uni) (X1 tptp.uni) (X2 tptp.uni)) (tptp.sort1 (tptp.map A B) (tptp.set B A X X1 X2))))
(assert (forall ((A tptp.ty) (B tptp.ty) (M tptp.uni) (A1 tptp.uni) (A2 tptp.uni) (B1 tptp.uni)) (=> (tptp.sort1 B B1) (=> (= A1 A2) (= (tptp.get B A (tptp.set B A M A1 B1) A2) B1)))))
(assert (forall ((A tptp.ty) (B tptp.ty) (M tptp.uni) (A1 tptp.uni) (A2 tptp.uni)) (=> (tptp.sort1 A A1) (=> (tptp.sort1 A A2) (forall ((B1 tptp.uni)) (=> (not (= A1 A2)) (= (tptp.get B A (tptp.set B A M A1 B1) A2) (tptp.get B A M A2))))))))
(declare-fun tptp.const (tptp.ty tptp.ty tptp.uni) tptp.uni)
(assert (forall ((A tptp.ty) (B tptp.ty) (X tptp.uni)) (tptp.sort1 (tptp.map A B) (tptp.const B A X))))
(assert (forall ((A tptp.ty) (B tptp.ty) (B1 tptp.uni) (A1 tptp.uni)) (=> (tptp.sort1 B B1) (= (tptp.get B A (tptp.const B A B1) A1) B1))))
(declare-fun tptp.array (tptp.ty) tptp.ty)
(declare-fun tptp.mk_array1 (tptp.ty Int tptp.uni) tptp.uni)
(assert (forall ((A tptp.ty) (X Int) (X1 tptp.uni)) (tptp.sort1 (tptp.array A) (tptp.mk_array1 A X X1))))
(declare-fun tptp.length1 (tptp.ty tptp.uni) Int)
(assert (forall ((A tptp.ty) (U Int) (U1 tptp.uni)) (= (tptp.length1 A (tptp.mk_array1 A U U1)) U)))
(declare-fun tptp.elts (tptp.ty tptp.uni) tptp.uni)
(assert (forall ((A tptp.ty) (X tptp.uni)) (tptp.sort1 (tptp.map tptp.int A) (tptp.elts A X))))
(assert (forall ((A tptp.ty) (U Int) (U1 tptp.uni)) (=> (tptp.sort1 (tptp.map tptp.int A) U1) (= (tptp.elts A (tptp.mk_array1 A U U1)) U1))))
(assert (forall ((A tptp.ty) (U tptp.uni)) (= U (tptp.mk_array1 A (tptp.length1 A U) (tptp.elts A U)))))
(declare-fun tptp.get2 (tptp.ty tptp.uni Int) tptp.uni)
(assert (forall ((A tptp.ty) (X tptp.uni) (X1 Int)) (tptp.sort1 A (tptp.get2 A X X1))))
(declare-fun tptp.t2tb (Int) tptp.uni)
(assert (forall ((X Int)) (tptp.sort1 tptp.int (tptp.t2tb X))))
(declare-fun tptp.tb2t (tptp.uni) Int)
(assert (forall ((I Int)) (= (tptp.tb2t (tptp.t2tb I)) I)))
(assert (forall ((J tptp.uni)) (= (tptp.t2tb (tptp.tb2t J)) J)))
(assert (forall ((A tptp.ty) (A1 tptp.uni) (I Int)) (= (tptp.get2 A A1 I) (tptp.get A tptp.int (tptp.elts A A1) (tptp.t2tb I)))))
(declare-fun tptp.set2 (tptp.ty tptp.uni Int tptp.uni) tptp.uni)
(assert (forall ((A tptp.ty) (X tptp.uni) (X1 Int) (X2 tptp.uni)) (tptp.sort1 (tptp.array A) (tptp.set2 A X X1 X2))))
(assert (forall ((A tptp.ty) (A1 tptp.uni) (I Int) (V tptp.uni)) (= (tptp.set2 A A1 I V) (tptp.mk_array1 A (tptp.length1 A A1) (tptp.set A tptp.int (tptp.elts A A1) (tptp.t2tb I) V)))))
(declare-fun tptp.make1 (tptp.ty Int tptp.uni) tptp.uni)
(assert (forall ((A tptp.ty) (X Int) (X1 tptp.uni)) (tptp.sort1 (tptp.array A) (tptp.make1 A X X1))))
(assert (forall ((A tptp.ty) (N Int) (V tptp.uni)) (= (tptp.make1 A N V) (tptp.mk_array1 A N (tptp.const A tptp.int V)))))
(declare-sort tptp.array_int 0)
(declare-fun tptp.eq_board1 (tptp.array_int tptp.array_int Int) Bool)
(declare-fun tptp.t2tb1 (tptp.array_int) tptp.uni)
(assert (forall ((X tptp.array_int)) (tptp.sort1 (tptp.array tptp.int) (tptp.t2tb1 X))))
(declare-fun tptp.tb2t1 (tptp.uni) tptp.array_int)
(assert (forall ((I tptp.array_int)) (= (tptp.tb2t1 (tptp.t2tb1 I)) I)))
(assert (forall ((J tptp.uni)) (= (tptp.t2tb1 (tptp.tb2t1 J)) J)))
(assert (forall ((B1 tptp.array_int) (B2 tptp.array_int) (Pos Int)) (= (tptp.eq_board1 B1 B2 Pos) (forall ((Q Int)) (=> (and (<= 0 Q) (< Q Pos)) (= (tptp.tb2t (tptp.get2 tptp.int (tptp.t2tb1 B1) Q)) (tptp.tb2t (tptp.get2 tptp.int (tptp.t2tb1 B2) Q))))))))
(assert (forall ((B tptp.array_int) (Pos Int) (Q Int) (I Int)) (=> (<= Pos Q) (tptp.eq_board1 B (tptp.tb2t1 (tptp.set2 tptp.int (tptp.t2tb1 B) Q (tptp.t2tb I))) Pos))))
(assert (forall ((B1 tptp.array_int) (B2 tptp.array_int) (Pos Int)) (=> (tptp.eq_board1 B1 B2 Pos) (tptp.eq_board1 B2 B1 Pos))))
(assert (forall ((B1 tptp.array_int) (B2 tptp.array_int) (B3 tptp.array_int) (Pos Int)) (=> (tptp.eq_board1 B1 B2 Pos) (=> (tptp.eq_board1 B2 B3 Pos) (tptp.eq_board1 B1 B3 Pos)))))
(assert (forall ((B1 tptp.array_int) (B2 tptp.array_int) (Pos Int)) (=> (tptp.eq_board1 B1 B2 Pos) (=> (= (tptp.tb2t (tptp.get2 tptp.int (tptp.t2tb1 B1) Pos)) (tptp.tb2t (tptp.get2 tptp.int (tptp.t2tb1 B2) Pos))) (tptp.eq_board1 B1 B2 (+ Pos 1))))))
(declare-fun tptp.consistent_row1 (tptp.array_int Int Int) Bool)
(assert (forall ((Board tptp.array_int) (Pos Int) (Q Int)) (let ((_let_1 (- Pos Q))) (let ((_let_2 (tptp.t2tb1 Board))) (let ((_let_3 (tptp.tb2t (tptp.get2 tptp.int _let_2 Q)))) (let ((_let_4 (tptp.tb2t (tptp.get2 tptp.int _let_2 Pos)))) (= (tptp.consistent_row1 Board Pos Q) (and (not (= _let_3 _let_4)) (not (= (- _let_3 _let_4) _let_1)) (not (= (- _let_4 _let_3) _let_1))))))))))
(assert (forall ((B1 tptp.array_int) (B2 tptp.array_int) (Pos Int)) (=> (tptp.eq_board1 B1 B2 (+ Pos 1)) (forall ((Q Int)) (=> (and (<= 0 Q) (< Q Pos)) (=> (tptp.consistent_row1 B1 Pos Q) (tptp.consistent_row1 B2 Pos Q)))))))
(declare-fun tptp.is_consistent1 (tptp.array_int Int) Bool)
(assert (forall ((Board tptp.array_int) (Pos Int)) (= (tptp.is_consistent1 Board Pos) (forall ((Q Int)) (=> (and (<= 0 Q) (< Q Pos)) (tptp.consistent_row1 Board Pos Q))))))
(declare-fun tptp.is_board1 (tptp.array_int Int) Bool)
(assert (forall ((Board tptp.array_int) (Pos Int)) (= (tptp.is_board1 Board Pos) (forall ((Q Int)) (let ((_let_1 (tptp.t2tb1 Board))) (let ((_let_2 (tptp.tb2t (tptp.get2 tptp.int _let_1 Q)))) (=> (and (<= 0 Q) (< Q Pos)) (and (<= 0 _let_2) (< _let_2 (tptp.length1 tptp.int _let_1))))))))))
(declare-fun tptp.solution1 (tptp.array_int Int) Bool)
(assert (forall ((Board tptp.array_int) (Pos Int)) (= (tptp.solution1 Board Pos) (and (tptp.is_board1 Board Pos) (forall ((Q Int)) (=> (and (<= 0 Q) (< Q Pos)) (tptp.is_consistent1 Board Q)))))))
(assert (forall ((B1 tptp.array_int) (B2 tptp.array_int) (Pos Int)) (=> (= (tptp.length1 tptp.int (tptp.t2tb1 B1)) (tptp.length1 tptp.int (tptp.t2tb1 B2))) (=> (tptp.eq_board1 B1 B2 Pos) (=> (tptp.solution1 B1 Pos) (tptp.solution1 B2 Pos))))))
(declare-sort tptp.map_int_int 0)
(declare-fun tptp.t2tb2 (tptp.map_int_int) tptp.uni)
(assert (forall ((X tptp.map_int_int)) (tptp.sort1 (tptp.map tptp.int tptp.int) (tptp.t2tb2 X))))
(declare-fun tptp.tb2t2 (tptp.uni) tptp.map_int_int)
(assert (forall ((I tptp.map_int_int)) (= (tptp.tb2t2 (tptp.t2tb2 I)) I)))
(assert (forall ((J tptp.uni)) (= (tptp.t2tb2 (tptp.tb2t2 J)) J)))
(assert (not (forall ((Board Int) (Board1 tptp.map_int_int) (N Int) (Pos Int)) (let ((_let_1 (tptp.tb2t1 (tptp.mk_array1 tptp.int Board (tptp.t2tb2 Board1))))) (let ((_let_2 (tptp.eq_board1 _let_1 _let_1 Pos))) (let ((_let_3 (- N 1))) (let ((_let_4 (= Pos N))) (=> (and (<= 0 Board) (= Board N) (<= 0 Pos) (<= Pos N) (tptp.solution1 _let_1 Pos)) (and (=> _let_4 (tptp.solution1 _let_1 N)) (=> (not _let_4) (and (=> (< _let_3 0) (and _let_2 (forall ((B Int) (B1 tptp.map_int_int)) (let ((_let_1 (tptp.tb2t1 (tptp.mk_array1 tptp.int B (tptp.t2tb2 B1))))) (=> (= B N) (=> (tptp.is_board1 _let_1 N) (=> (tptp.eq_board1 (tptp.tb2t1 (tptp.mk_array1 tptp.int Board (tptp.t2tb2 Board1))) _let_1 Pos) (not (tptp.solution1 _let_1 N))))))))) (=> (<= 0 _let_3) (and _let_2 (forall ((B Int) (B1 tptp.map_int_int)) (let ((_let_1 (tptp.t2tb2 B1))) (let ((_let_2 (tptp.tb2t1 (tptp.mk_array1 tptp.int B _let_1)))) (let ((_let_3 (tptp.tb2t (tptp.get tptp.int tptp.int _let_1 (tptp.t2tb Pos))))) (=> (= B N) (=> (tptp.is_board1 _let_2 N) (=> (tptp.eq_board1 (tptp.tb2t1 (tptp.mk_array1 tptp.int Board (tptp.t2tb2 Board1))) _let_2 Pos) (=> (and (<= 0 _let_3) (< _let_3 0)) (not (tptp.solution1 _let_2 N)))))))))) (forall ((Board2 tptp.map_int_int)) (let ((_let_1 (tptp.eq_board1 (tptp.tb2t1 (tptp.mk_array1 tptp.int Board (tptp.t2tb2 Board2))) (tptp.tb2t1 (tptp.mk_array1 tptp.int Board (tptp.t2tb2 Board1))) Pos))) (and (forall ((I Int)) (=> (and (<= 0 I) (<= I (- N 1))) (=> (and (tptp.eq_board1 (tptp.tb2t1 (tptp.mk_array1 tptp.int Board (tptp.t2tb2 Board2))) (tptp.tb2t1 (tptp.mk_array1 tptp.int Board (tptp.t2tb2 Board1))) Pos) (forall ((B Int) (B1 tptp.map_int_int)) (let ((_let_1 (tptp.t2tb2 B1))) (let ((_let_2 (tptp.tb2t1 (tptp.mk_array1 tptp.int B _let_1)))) (let ((_let_3 (tptp.tb2t (tptp.get tptp.int tptp.int _let_1 (tptp.t2tb Pos))))) (=> (= B N) (=> (tptp.is_board1 _let_2 N) (=> (tptp.eq_board1 (tptp.tb2t1 (tptp.mk_array1 tptp.int Board (tptp.t2tb2 Board2))) _let_2 Pos) (=> (and (<= 0 _let_3) (< _let_3 I)) (not (tptp.solution1 _let_2 N))))))))))) (and (<= 0 Board) (<= 0 Pos) (< Pos Board) (forall ((Board3 tptp.map_int_int)) (=> (and (<= 0 Board) (= Board3 (tptp.tb2t2 (tptp.set tptp.int tptp.int (tptp.t2tb2 Board2) (tptp.t2tb Pos) (tptp.t2tb I))))) (and (<= 0 Pos) (< Pos Board) (forall ((Result tptp.bool1)) (let ((_let_1 (tptp.tb2t1 (tptp.mk_array1 tptp.int Board (tptp.t2tb2 Board3))))) (let ((_let_2 (= Result tptp.true1))) (let ((_let_3 (+ Pos 1))) (let ((_let_4 (- N Pos))) (=> (= _let_2 (tptp.is_consistent1 _let_1 Pos)) (and (=> _let_2 (and (<= 0 _let_4) (< (- N _let_3) _let_4) (= Board N) (<= 0 _let_3) (<= _let_3 N) (tptp.solution1 _let_1 _let_3) (forall ((Board4 tptp.map_int_int)) (let ((_let_1 (tptp.tb2t1 (tptp.mk_array1 tptp.int Board (tptp.t2tb2 Board4))))) (=> (and (<= 0 Board) (tptp.eq_board1 _let_1 (tptp.tb2t1 (tptp.mk_array1 tptp.int Board (tptp.t2tb2 Board3))) (+ Pos 1)) (forall ((B Int) (B1 tptp.map_int_int)) (let ((_let_1 (tptp.tb2t1 (tptp.mk_array1 tptp.int B (tptp.t2tb2 B1))))) (=> (= B N) (=> (tptp.is_board1 _let_1 N) (=> (tptp.eq_board1 (tptp.tb2t1 (tptp.mk_array1 tptp.int Board (tptp.t2tb2 Board4))) _let_1 (+ Pos 1)) (not (tptp.solution1 _let_1 N)))))))) (and (tptp.eq_board1 _let_1 (tptp.tb2t1 (tptp.mk_array1 tptp.int Board (tptp.t2tb2 Board1))) Pos) (forall ((B Int) (B1 tptp.map_int_int)) (let ((_let_1 (tptp.t2tb2 B1))) (let ((_let_2 (tptp.tb2t1 (tptp.mk_array1 tptp.int B _let_1)))) (let ((_let_3 (tptp.tb2t (tptp.get tptp.int tptp.int _let_1 (tptp.t2tb Pos))))) (=> (= B N) (=> (tptp.is_board1 _let_2 N) (=> (tptp.eq_board1 (tptp.tb2t1 (tptp.mk_array1 tptp.int Board (tptp.t2tb2 Board4))) _let_2 Pos) (=> (and (<= 0 _let_3) (< _let_3 (+ I 1))) (not (tptp.solution1 _let_2 N)))))))))))))) (forall ((Board4 tptp.map_int_int)) (let ((_let_1 (tptp.solution1 (tptp.tb2t1 (tptp.mk_array1 tptp.int Board (tptp.t2tb2 Board4))) N))) (=> (and (<= 0 Board) _let_1) _let_1))))) (=> (not _let_2) (and (tptp.eq_board1 _let_1 (tptp.tb2t1 (tptp.mk_array1 tptp.int Board (tptp.t2tb2 Board1))) Pos) (forall ((B Int) (B1 tptp.map_int_int)) (let ((_let_1 (tptp.t2tb2 B1))) (let ((_let_2 (tptp.tb2t1 (tptp.mk_array1 tptp.int B _let_1)))) (let ((_let_3 (tptp.tb2t (tptp.get tptp.int tptp.int _let_1 (tptp.t2tb Pos))))) (=> (= B N) (=> (tptp.is_board1 _let_2 N) (=> (tptp.eq_board1 (tptp.tb2t1 (tptp.mk_array1 tptp.int Board (tptp.t2tb2 Board3))) _let_2 Pos) (=> (and (<= 0 _let_3) (< _let_3 (+ I 1))) (not (tptp.solution1 _let_2 N)))))))))))))))))))))))))) (=> (and _let_1 (forall ((B Int) (B1 tptp.map_int_int)) (let ((_let_1 (tptp.t2tb2 B1))) (let ((_let_2 (tptp.tb2t1 (tptp.mk_array1 tptp.int B _let_1)))) (let ((_let_3 (tptp.tb2t (tptp.get tptp.int tptp.int _let_1 (tptp.t2tb Pos))))) (=> (= B N) (=> (tptp.is_board1 _let_2 N) (=> (tptp.eq_board1 (tptp.tb2t1 (tptp.mk_array1 tptp.int Board (tptp.t2tb2 Board2))) _let_2 Pos) (=> (and (<= 0 _let_3) (< _let_3 (+ (- N 1) 1))) (not (tptp.solution1 _let_2 N))))))))))) (and (<= 0 Board) _let_1 (forall ((B Int) (B1 tptp.map_int_int)) (let ((_let_1 (tptp.tb2t1 (tptp.mk_array1 tptp.int B (tptp.t2tb2 B1))))) (=> (= B N) (=> (tptp.is_board1 _let_1 N) (=> (tptp.eq_board1 (tptp.tb2t1 (tptp.mk_array1 tptp.int Board (tptp.t2tb2 Board2))) _let_1 Pos) (not (tptp.solution1 _let_1 N)))))))))))))))))))))))))
(check-sat)
(exit)
